51221.75,25.5,28.08
50066.2,26.09,28.73
50532.22,25.85,28.47
51741.69,25.25,27.8
51754.79,25.24,27.8
51363.87,25.43,28.01
56601.4,23.08,25.42
50218.91,26.01,28.65
53900.26,24.24,26.69
53617.37,24.36,26.83
56507.18,23.12,25.46
56271.97,23.21,25.56
52135.3,25.06,27.59
53454.89,24.44,26.91
52307.72,24.97,27.5
50758.4,25.74,28.34
51175.81,25.53,28.11
53477.85,24.43,26.9
55805.49,23.41,25.78
51880.44,25.18,27.73
